Traveling Salesman Problem/TSP_generados/Aleatorio1620391095_14.tsp
NAME: Aleatorio1620391095_14.tsp
COMMENT: Randomly generated scenario
TYPE: TSP
DIMENSION: 14
EDGE_WEIGHT_TYPE: ATT
NODE_COORD_SECTION
1 22.08 37.3
2 35.17 11.3
3 49.36 44.3
4 16.64 31.61
5 37.9 21.83
6 20.12 49.1
7 40.95 7.29
8 4.07 16.1
9 29.37 48.11
10 45.57 21.19
11 26.77 5.22
12 45.62 4.77
13 47.61 48.25
14 48.35 30.94
