Traveling Salesman Problem/TSP_generados/Aleatorio1620391095_14.opt.tour
NAME: Aleatorio1620391095_14.opt.tour
COMMENT: Optimal solution for Aleatorio1620391095_14 (169.50383957546887)
TYPE: TOUR
DIMENSION: 14
TOUR_SECTION
1 4 8 11 2 7 12 5 10 14 3 13 9 6
-1
EOF
